pRobustCbss/GLKH-1.1/TMP/mtspf.pid4607.atsp
NAME : mtspf.pid4607.gtsp
TYPE : ATSP
DIMENSION : 11
EDGE_WEIGHT_TYPE : EXPLICIT
EDGE_WEIGHT_FORMAT : FULL_MATRIX
EDGE_WEIGHT_SECTION
999999 5368709 5468708 5368712 5368711 5368712 5368713 5368714 5368713 5368714 5368715 
5468708 999999 5368709 5368713 5368712 5368711 5368712 5368715 5368714 5368715 5368716 
5368709 5468708 999999 5368715 5368716 5368715 5368714 5368711 5368712 5368713 5368712 
5368709 5368709 5468708 999999 0 10737418 10737418 5368712 5368711 5368712 5368713 
5368709 5368709 5468708 10737418 999999 0 10737418 5368713 5368712 5368713 5368714 
5368709 5368709 5468708 10737418 10737418 999999 0 5368714 5368713 5368714 5368715 
5368709 5368709 5468708 0 10737418 10737418 999999 5368713 5368712 5368713 5368714 
5368709 5368709 5368709 5368714 5368715 5368714 5368713 999999 0 10737418 10737418 
5368709 5368709 5368709 5368713 5368714 5368713 5368712 10737418 999999 0 10737418 
5368709 5368709 5368709 5368712 5368713 5368712 5368711 10737418 10737418 999999 0 
5368709 5368709 5368709 5368713 5368714 5368713 5368712 0 10737418 10737418 999999 
EOF
