pRobustCbss/GLKH-1.1/TMP/mtspf.pid4607.tour
NAME : mtspf.pid4607.gtsp.26843549.tour
COMMENT : Length = 26843549
COMMENT : Found by LKH [Keld Helsgaun] Fri Dec 27 14:38:31 2024
TYPE : TOUR
DIMENSION : 11
TOUR_SECTION
1
5
6
7
4
9
10
11
8
2
3
-1
EOF
